sat
(
(define-fun J () String "")
(define-fun I () String "")
(define-fun H () String "aabbb")
(define-fun R () String "")
(define-fun V () String "aaaaaaabbbaa")
(define-fun G () String "")
(define-fun N () String "")
(define-fun M () String "")
(define-fun P () String "")
)
